c WARNING: for repeatability, setting FPU to use double precision
d VARIABLES            226848       
d CONSTRAINTS          839608       
c ============================[ Problem Statistics ]=============================
c |                                                                             |
c |  Number of variables:        226848                                         |
c |  Number of clauses:          839608                                         |
c |  Parse time:                   0.14 s                                       |
c |                                                                             |
c ============================[ Search Statistics ]==============================
c | Conflicts |          ORIGINAL         |          LEARNT          | Progress |
c |           |    Vars  Clauses Literals |    Limit  Clauses Lit/Cl |          |
c ===============================================================================
c |       100 |  186585   735186  1843877 |   269568       98      4 | 17.749 % |
c |       250 |  186585   735186  1843877 |   296525      248      3 | 17.749 % |
c |       475 |  186585   735186  1843877 |   326177      473      9 | 17.749 % |
c |       812 |  186585   735178  1843857 |   358795      810     15 | 17.749 % |
c |      1318 |  186585   735178  1843857 |   394674     1316     14 | 17.749 % |
c |      2077 |  186585   735178  1843857 |   434142     2075     12 | 17.749 % |
c |      3216 |  186585   735178  1843857 |   477556     3214     50 | 17.749 % |
c |      4924 |  186585   735178  1843857 |   525312     4922     49 | 17.749 % |
c |      7486 |  186585   735178  1843857 |   577843     7484     80 | 17.749 % |
c |     11330 |  186585   735178  1843857 |   635627    11328     88 | 17.749 % |
c |     17096 |  186585   735178  1843857 |   699190    17094     99 | 17.749 % |
c |     25745 |  186585   735178  1843857 |   769109    25743    110 | 17.749 % |
c |     38719 |  186585   735178  1843857 |   846020    38717    123 | 17.749 % |
c |     58180 |  186585   735178  1843857 |   930622    58178    138 | 17.749 % |
c |     87372 |  186585   735178  1843857 |  1023684    87370    136 | 17.749 % |
c |    131161 |  186585   735178  1843857 |  1126053   131159    136 | 17.749 % |
c |    196845 |  186585   735178  1843857 |  1238658   196843    137 | 17.749 % |
c |    295371 |  186585   735178  1843857 |  1362524   295369    139 | 17.749 % |
c |    443160 |  186585   735178  1843857 |  1498776   443158    158 | 17.749 % |
c |    664843 |  186585   735178  1843857 |  1648654   664841    162 | 17.749 % |
c |    997368 |  186585   735178  1843857 |  1813520   997366    155 | 17.749 % |
c |   1496156 |  186585   735178  1843857 |  1994872  1496154    153 | 17.749 % |
c |   2244338 |  186585   735178  1843857 |  2194359   249522    159 | 17.749 % |
c ===============================================================================
c restarts              : 4510
c conflicts             : 2617441        (1462 /sec)
c decisions             : 6170560        (0.00 % random) (3448 /sec)
c propagations          : 3058458215     (1708888 /sec)
c conflict literals     : 416647467      (43.08 % deleted)
d RESTARTS             4510
d FAILURES             2617441      
d NODES                6170560      
d BACKTRACKS           6170560      
d PROPAGATIONS         3058458215   
d NOGOODSIZE           159.18 
d MEMORY               1676.00 
d TIME                 1789.74 

s UNKNOWN
